(set-logic HORN)
(declare-rel inv1 ( (Array Int Int) Int Int))(declare-rel inv2 ( (Array Int Int) Int Int Int))(declare-rel fail ( ))(forall ((a (Array Int Int)) (N Int)) (! (inv1 a 0 N) ))(forall ((a (Array Int Int)) (i Int) (j Int) (N Int))
  (! (=> (and (inv1 a i N) (< i N) (= j (+ i 1))) (inv2 a i j N)) ))(forall ((a (Array Int Int))
         (j Int)
         (i Int)
         (a1 (Array Int Int))
         (i1 Int)
         (j1 Int)
         (N Int))
  (! (let ((a!1 (ite (< (select a i) (select a j))
                     (store (store a i (select a j)) j (select a i))
                     a)))
       (=> (and (inv2 a i j N) (< j N) (= a1 a!1) (= j1 (+ j 1)) (= i1 i))
           (inv2 a1 i1 j1 N)))
     ))(forall ((j Int) (i Int) (a (Array Int Int)) (i1 Int) (N Int))
  (! (=> (and (inv2 a i j N) (not (< j N)) (= i1 (+ i 1))) (inv1 a i1 N))
     ))(forall ((i Int) (N Int) (i1 Int) (a (Array Int Int)) (j1 Int))
  (! (let ((a!1 (and (inv1 a i N)
                     (not (< i N))
                     (< 0 i1)
                     (< i1 N)
                     (< i1 j1)
                     (< j1 N)
                     (not (>= (select a i1) (select a j1))))))
       (=> a!1 fail))
     ))(assert (not fail))
(check-sat)